c Standarized MaxSat Instance
c{
c "sha1sum": "922e665a76ec7c105765bc9ad4352fedaf81d5d8",
c "nvars": 280,
c "ncls": 1309,
c "total_lits": 2324,
c "nhards": 364,
c "nhard_nlits": 812,
c "nhard_len_stats":
c    { "min": 2,
c      "max": 5,
c      "ave": 2.2308,
c      "stddev": 0.7994 },
c "nsofts": 945,
c "nsoft_nlits": 1512,
c "nsoft_len_stats":
c    { "min": 1,
c      "max": 4,
c      "ave": 1.6000,
c      "stddev": 0.7251 },
c "nsoft_wts": 1,
c "soft_wt_stats":
c    { "min": 1,
c      "max": 1,
c      "ave": 1.0000,
c      "stddev": 0.0000 }
c}
c------------------------------------------------------------
c Original instance: kbtree_wcnf.s-suppc_w9-s7-h3-d5/90/kbtree9_7_3_5_90_5.wcsp
c Format: Partial Max-SAT (wcnf)
c Encoding: [SEQUENTIAL] + Support (less SUM 2^#literals direction)
h 1 2 3 4 5 0
h 6 7 8 9 10 0
h 11 12 13 14 15 0
h 16 17 18 19 20 0
h 21 22 23 24 25 0
h 26 27 28 29 30 0
h 31 32 33 34 35 0
h 36 37 38 39 40 0
h 41 42 43 44 45 0
h 46 47 48 49 50 0
h 51 52 53 54 55 0
h 56 57 58 59 60 0
h 61 62 63 64 65 0
h 66 67 68 69 70 0
h 71 72 73 74 75 0
h 76 77 78 79 80 0
h 81 82 83 84 85 0
h 86 87 88 89 90 0
h 91 92 93 94 95 0
h 96 97 98 99 100 0
h 101 102 103 104 105 0
h 106 107 108 109 110 0
h 111 112 113 114 115 0
h 116 117 118 119 120 0
h 121 122 123 124 125 0
h 126 127 128 129 130 0
h 131 132 133 134 135 0
h 136 137 138 139 140 0
h -1 -142 0
h -2 142 0
h -2 -143 0
h -3 143 0
h -3 -144 0
h -4 144 0
h -4 -145 0
h -5 145 0
h -6 -147 0
h -7 147 0
h -7 -148 0
h -8 148 0
h -8 -149 0
h -9 149 0
h -9 -150 0
h -10 150 0
h -11 -152 0
h -12 152 0
h -12 -153 0
h -13 153 0
h -13 -154 0
h -14 154 0
h -14 -155 0
h -15 155 0
h -16 -157 0
h -17 157 0
h -17 -158 0
h -18 158 0
h -18 -159 0
h -19 159 0
h -19 -160 0
h -20 160 0
h -21 -162 0
h -22 162 0
h -22 -163 0
h -23 163 0
h -23 -164 0
h -24 164 0
h -24 -165 0
h -25 165 0
h -26 -167 0
h -27 167 0
h -27 -168 0
h -28 168 0
h -28 -169 0
h -29 169 0
h -29 -170 0
h -30 170 0
h -31 -172 0
h -32 172 0
h -32 -173 0
h -33 173 0
h -33 -174 0
h -34 174 0
h -34 -175 0
h -35 175 0
h -36 -177 0
h -37 177 0
h -37 -178 0
h -38 178 0
h -38 -179 0
h -39 179 0
h -39 -180 0
h -40 180 0
h -41 -182 0
h -42 182 0
h -42 -183 0
h -43 183 0
h -43 -184 0
h -44 184 0
h -44 -185 0
h -45 185 0
h -46 -187 0
h -47 187 0
h -47 -188 0
h -48 188 0
h -48 -189 0
h -49 189 0
h -49 -190 0
h -50 190 0
h -51 -192 0
h -52 192 0
h -52 -193 0
h -53 193 0
h -53 -194 0
h -54 194 0
h -54 -195 0
h -55 195 0
h -56 -197 0
h -57 197 0
h -57 -198 0
h -58 198 0
h -58 -199 0
h -59 199 0
h -59 -200 0
h -60 200 0
h -61 -202 0
h -62 202 0
h -62 -203 0
h -63 203 0
h -63 -204 0
h -64 204 0
h -64 -205 0
h -65 205 0
h -66 -207 0
h -67 207 0
h -67 -208 0
h -68 208 0
h -68 -209 0
h -69 209 0
h -69 -210 0
h -70 210 0
h -71 -212 0
h -72 212 0
h -72 -213 0
h -73 213 0
h -73 -214 0
h -74 214 0
h -74 -215 0
h -75 215 0
h -76 -217 0
h -77 217 0
h -77 -218 0
h -78 218 0
h -78 -219 0
h -79 219 0
h -79 -220 0
h -80 220 0
h -81 -222 0
h -82 222 0
h -82 -223 0
h -83 223 0
h -83 -224 0
h -84 224 0
h -84 -225 0
h -85 225 0
h -86 -227 0
h -87 227 0
h -87 -228 0
h -88 228 0
h -88 -229 0
h -89 229 0
h -89 -230 0
h -90 230 0
h -91 -232 0
h -92 232 0
h -92 -233 0
h -93 233 0
h -93 -234 0
h -94 234 0
h -94 -235 0
h -95 235 0
h -96 -237 0
h -97 237 0
h -97 -238 0
h -98 238 0
h -98 -239 0
h -99 239 0
h -99 -240 0
h -100 240 0
h -101 -242 0
h -102 242 0
h -102 -243 0
h -103 243 0
h -103 -244 0
h -104 244 0
h -104 -245 0
h -105 245 0
h -106 -247 0
h -107 247 0
h -107 -248 0
h -108 248 0
h -108 -249 0
h -109 249 0
h -109 -250 0
h -110 250 0
h -111 -252 0
h -112 252 0
h -112 -253 0
h -113 253 0
h -113 -254 0
h -114 254 0
h -114 -255 0
h -115 255 0
h -116 -257 0
h -117 257 0
h -117 -258 0
h -118 258 0
h -118 -259 0
h -119 259 0
h -119 -260 0
h -120 260 0
h -121 -262 0
h -122 262 0
h -122 -263 0
h -123 263 0
h -123 -264 0
h -124 264 0
h -124 -265 0
h -125 265 0
h -126 -267 0
h -127 267 0
h -127 -268 0
h -128 268 0
h -128 -269 0
h -129 269 0
h -129 -270 0
h -130 270 0
h -131 -272 0
h -132 272 0
h -132 -273 0
h -133 273 0
h -133 -274 0
h -134 274 0
h -134 -275 0
h -135 275 0
h -136 -277 0
h -137 277 0
h -137 -278 0
h -138 278 0
h -138 -279 0
h -139 279 0
h -139 -280 0
h -140 280 0
h -142 141 0
h -143 142 0
h -144 143 0
h -145 144 0
h -147 146 0
h -148 147 0
h -149 148 0
h -150 149 0
h -152 151 0
h -153 152 0
h -154 153 0
h -155 154 0
h -157 156 0
h -158 157 0
h -159 158 0
h -160 159 0
h -162 161 0
h -163 162 0
h -164 163 0
h -165 164 0
h -167 166 0
h -168 167 0
h -169 168 0
h -170 169 0
h -172 171 0
h -173 172 0
h -174 173 0
h -175 174 0
h -177 176 0
h -178 177 0
h -179 178 0
h -180 179 0
h -182 181 0
h -183 182 0
h -184 183 0
h -185 184 0
h -187 186 0
h -188 187 0
h -189 188 0
h -190 189 0
h -192 191 0
h -193 192 0
h -194 193 0
h -195 194 0
h -197 196 0
h -198 197 0
h -199 198 0
h -200 199 0
h -202 201 0
h -203 202 0
h -204 203 0
h -205 204 0
h -207 206 0
h -208 207 0
h -209 208 0
h -210 209 0
h -212 211 0
h -213 212 0
h -214 213 0
h -215 214 0
h -217 216 0
h -218 217 0
h -219 218 0
h -220 219 0
h -222 221 0
h -223 222 0
h -224 223 0
h -225 224 0
h -227 226 0
h -228 227 0
h -229 228 0
h -230 229 0
h -232 231 0
h -233 232 0
h -234 233 0
h -235 234 0
h -237 236 0
h -238 237 0
h -239 238 0
h -240 239 0
h -242 241 0
h -243 242 0
h -244 243 0
h -245 244 0
h -247 246 0
h -248 247 0
h -249 248 0
h -250 249 0
h -252 251 0
h -253 252 0
h -254 253 0
h -255 254 0
h -257 256 0
h -258 257 0
h -259 258 0
h -260 259 0
h -262 261 0
h -263 262 0
h -264 263 0
h -265 264 0
h -267 266 0
h -268 267 0
h -269 268 0
h -270 269 0
h -272 271 0
h -273 272 0
h -274 273 0
h -275 274 0
h -277 276 0
h -278 277 0
h -279 278 0
h -280 279 0
1 -61 41 0
1 -62 0
1 -63 42 0
1 -64 0
1 -65 43 0
1 -11 0
1 -12 57 0
1 -13 0
1 -14 58 60 0
1 -15 0
1 -16 0
1 -17 0
1 -18 39 40 0
1 -19 0
1 -20 38 0
1 -126 104 0
1 -127 0
1 -128 105 0
1 -129 0
1 -130 101 0
1 -1 67 0
1 -2 66 68 0
1 -3 0
1 -4 0
1 -5 0
1 -81 42 43 0
1 -82 0
1 -83 0
1 -84 0
1 -85 44 0
1 -111 110 0
1 -112 0
1 -113 107 0
1 -114 109 0
1 -115 0
1 -11 20 0
1 -12 0
1 -13 0
1 -14 0
1 -15 16 19 0
1 -61 0
1 -62 89 0
1 -63 86 87 0
1 -64 0
1 -65 0
1 -56 0
1 -57 36 0
1 -58 37 0
1 -59 40 0
1 -60 0
1 -46 0
1 -47 15 0
1 -48 11 14 0
1 -49 0
1 -50 0
1 -101 0
1 -102 0
1 -103 25 0
1 -104 0
1 -105 21 25 0
1 -21 46 50 0
1 -22 0
1 -23 0
1 -24 47 0
1 -25 0
1 -51 7 0
1 -52 10 0
1 -53 0
1 -54 8 0
1 -55 0
1 -71 0
1 -72 18 20 0
1 -73 16 0
1 -74 0
1 -75 0
1 -91 0
1 -92 11 0
1 -93 15 0
1 -94 0
1 -95 14 0
1 -41 2 4 0
1 -42 0
1 -43 0
1 -44 0
1 -45 5 0
1 -36 0
1 -37 51 53 0
1 -38 52 0
1 -39 0
1 -40 0
1 -101 0
1 -102 37 0
1 -103 36 0
1 -104 0
1 -105 40 0
1 -131 21 0
1 -132 0
1 -133 21 23 0
1 -134 0
1 -135 0
1 -21 124 125 0
1 -22 122 0
1 -23 0
1 -24 0
1 -25 0
1 -11 7 0
1 -12 0
1 -13 0
1 -14 10 0
1 -15 8 0
1 -96 25 0
1 -97 22 25 0
1 -98 0
1 -99 0
1 -100 0
1 -41 23 0
1 -42 24 0
1 -43 0
1 -44 0
1 -45 25 0
1 -101 0
1 -102 27 0
1 -103 0
1 -104 0
1 -105 27 28 0
1 -6 0
1 -7 43 45 0
1 -8 41 0
1 -9 0
1 -10 0
1 -131 0
1 -132 0
1 -133 98 99 0
1 -134 97 0
1 -135 0
1 -31 0
1 -32 25 0
1 -33 21 0
1 -34 24 0
1 -35 0
1 -6 0
1 -7 16 0
1 -8 0
1 -9 0
1 -10 17 20 0
1 -131 16 0
1 -132 0
1 -133 18 0
1 -134 0
1 -135 17 0
1 -121 28 0
1 -122 0
1 -123 27 0
1 -124 0
1 -125 30 0
1 -111 0
1 -112 102 0
1 -113 0
1 -114 104 0
1 -115 103 0
1 -1 132 135 0
1 -2 0
1 -3 0
1 -4 131 0
1 -5 0
1 -121 100 0
1 -122 99 0
1 -123 96 0
1 -124 0
1 -125 0
1 -91 57 0
1 -92 56 59 0
1 -93 0
1 -94 0
1 -95 0
1 -41 0
1 -42 0
1 -43 0
1 -44 0
1 -45 92 94 95 0
1 -126 5 0
1 -127 3 5 0
1 -128 0
1 -129 0
1 -130 0
1 -61 36 0
1 -62 38 40 0
1 -63 0
1 -64 0
1 -65 0
1 -106 26 0
1 -107 0
1 -108 0
1 -109 28 29 0
1 -110 0
1 -96 0
1 -97 0
1 -98 16 17 0
1 -99 16 0
1 -100 0
1 -96 28 0
1 -97 0
1 -98 29 0
1 -99 0
1 -100 27 0
1 -31 0
1 -32 72 75 0
1 -33 0
1 -34 0
1 -35 74 0
1 -56 42 45 0
1 -57 0
1 -58 41 0
1 -59 0
1 -60 0
1 -26 0
1 -27 9 0
1 -28 6 0
1 -29 0
1 -30 8 0
1 -46 0
1 -47 0
1 -48 136 137 138 0
1 -49 0
1 -50 0
1 -66 38 0
1 -67 0
1 -68 40 0
1 -69 0
1 -70 36 0
1 -86 0
1 -87 34 35 0
1 -88 0
1 -89 0
1 -90 31 0
1 -106 22 25 0
1 -107 0
1 -108 0
1 -109 0
1 -110 23 0
1 -51 12 0
1 -52 0
1 -53 15 0
1 -54 0
1 -55 13 0
1 -101 0
1 -102 0
1 -103 0
1 -104 133 134 0
1 -105 132 0
1 -46 36 0
1 -47 0
1 -48 39 0
1 -49 37 0
1 -50 0
1 -21 0
1 -22 136 137 0
1 -23 0
1 -24 138 0
1 -25 0
1 -46 0
1 -47 98 100 0
1 -48 0
1 -49 0
1 -50 99 0
1 -41 0
1 -42 27 0
1 -43 26 0
1 -44 29 0
1 -45 0
1 -76 0
1 -77 13 15 0
1 -78 0
1 -79 15 0
1 -80 0
1 -31 0
1 -32 61 62 0
1 -33 0
1 -34 65 0
1 -35 0
1 -36 25 0
1 -37 0
1 -38 24 0
1 -39 0
1 -40 23 0
1 -126 0
1 -127 132 134 0
1 -128 0
1 -129 133 0
1 -130 0
1 -46 0
1 -47 0
1 -48 4 0
1 -49 5 0
1 -50 2 0
1 -136 96 100 0
1 -137 0
1 -138 0
1 -139 100 0
1 -140 0
1 -16 92 0
1 -17 0
1 -18 91 94 0
1 -19 0
1 -20 0
1 -86 11 15 0
1 -87 0
1 -88 12 0
1 -89 0
1 -90 0
1 -21 117 0
1 -22 0
1 -23 0
1 -24 116 119 0
1 -25 0
1 -31 7 0
1 -32 0
1 -33 7 8 0
1 -34 0
1 -35 0
1 -106 0
1 -107 101 102 0
1 -108 0
1 -109 0
1 -110 103 0
1 -26 5 0
1 -27 0
1 -28 0
1 -29 3 0
1 -30 4 0
1 -76 53 0
1 -77 53 54 0
1 -78 0
1 -79 0
1 -80 0
1 -101 0
1 -102 3 0
1 -103 2 0
1 -104 1 0
1 -105 0
1 -71 9 0
1 -72 10 0
1 -73 6 0
1 -74 0
1 -75 0
1 -86 0
1 -87 0
1 -88 38 39 0
1 -89 37 0
1 -90 0
1 -11 5 0
1 -12 0
1 -13 0
1 -14 2 4 0
1 -15 0
1 -111 1 0
1 -112 0
1 -113 0
1 -114 1 4 0
1 -115 0
1 -81 0
1 -82 0
1 -83 0
1 -84 64 65 0
1 -85 63 0
1 -66 15 0
1 -67 11 0
1 -68 12 0
1 -69 0
1 -70 0
1 -51 42 0
1 -52 0
1 -53 45 0
1 -54 0
1 -55 43 0
1 -1 0
1 -2 0
1 -3 97 98 0
1 -4 99 0
1 -5 0
1 -101 0
1 -102 0
1 -103 0
1 -104 0
1 -105 98 99 100 0
1 -96 6 0
1 -97 0
1 -98 0
1 -99 0
1 -100 7 8 0
1 -66 0
1 -67 34 0
1 -68 0
1 -69 31 35 0
1 -70 0
1 -116 0
1 -117 0
1 -118 30 0
1 -119 26 0
1 -120 28 0
1 -46 0
1 -47 27 28 0
1 -48 0
1 -49 0
1 -50 26 0
1 -11 27 28 0
1 -12 0
1 -13 29 0
1 -14 0
1 -15 0
1 -61 0
1 -62 4 0
1 -63 1 5 0
1 -64 0
1 -65 0
1 -106 7 0
1 -107 0
1 -108 10 0
1 -109 0
1 -110 6 0
1 -81 0
1 -82 0
1 -83 14 0
1 -84 13 0
1 -85 15 0
1 -86 0
1 -87 17 0
1 -88 0
1 -89 0
1 -90 17 20 0
1 -61 0
1 -62 0
1 -63 51 0
1 -64 0
1 -65 54 55 0
1 -121 0
1 -122 113 0
1 -123 113 114 0
1 -124 0
1 -125 0
1 -41 0
1 -42 32 0
1 -43 35 0
1 -44 31 0
1 -45 0
1 -36 27 0
1 -37 0
1 -38 26 28 0
1 -39 0
1 -40 0
1 -136 101 0
1 -137 105 0
1 -138 0
1 -139 0
1 -140 102 0
1 -46 0
1 -47 0
1 -48 0
1 -49 32 34 0
1 -50 35 0
1 -21 114 0
1 -22 0
1 -23 0
1 -24 0
1 -25 111 113 0
1 -91 87 88 0
1 -92 0
1 -93 0
1 -94 86 0
1 -95 0
1 -21 0
1 -22 10 0
1 -23 7 0
1 -24 0
1 -25 8 0
1 -21 0
1 -22 130 0
1 -23 0
1 -24 0
1 -25 126 129 0
1 -76 5 0
1 -77 3 0
1 -78 0
1 -79 0
1 -80 2 0
1 -126 0
1 -127 0
1 -128 0
1 -129 138 140 0
1 -130 139 0
1 -101 9 0
1 -102 0
1 -103 0
1 -104 6 9 0
1 -105 0
1 -11 25 0
1 -12 21 23 0
1 -13 0
1 -14 0
1 -15 0
1 -116 108 0
1 -117 0
1 -118 109 0
1 -119 0
1 -120 106 0
1 -106 0
1 -107 0
1 -108 0
1 -109 46 0
1 -110 48 49 0
1 -46 41 44 0
1 -47 0
1 -48 41 0
1 -49 0
1 -50 0
1 -136 17 20 0
1 -137 0
1 -138 16 0
1 -139 0
1 -140 0
1 -16 0
1 -17 0
1 -18 46 50 0
1 -19 47 0
1 -20 0
1 -31 0
1 -32 26 28 0
1 -33 30 0
1 -34 0
1 -35 0
1 -1 56 58 0
1 -2 0
1 -3 0
1 -4 0
1 -5 60 0
1 -116 103 105 0
1 -117 0
1 -118 0
1 -119 0
1 -120 105 0
1 -51 3 0
1 -52 0
1 -53 2 0
1 -54 0
1 -55 4 0
1 -31 0
1 -32 56 60 0
1 -33 58 0
1 -34 0
1 -35 0
1 -81 0
1 -82 0
1 -83 19 20 0
1 -84 17 0
1 -85 0
1 -71 5 0
1 -72 4 0
1 -73 0
1 -74 2 0
1 -75 0
1 -31 0
1 -32 82 0
1 -33 0
1 -34 0
1 -35 83 85 0
1 -111 0
1 -112 39 0
1 -113 40 0
1 -114 0
1 -115 36 0
1 -16 0
1 -17 24 25 0
1 -18 22 0
1 -19 0
1 -20 0
1 -86 0
1 -87 0
1 -88 58 0
1 -89 0
1 -90 56 59 0
1 -36 5 0
1 -37 0
1 -38 3 0
1 -39 2 0
1 -40 0
1 -16 0
1 -17 0
1 -18 0
1 -19 102 103 0
1 -20 101 0
1 -116 96 0
1 -117 0
1 -118 96 97 0
1 -119 0
1 -120 0
1 -36 0
1 -37 9 0
1 -38 6 0
1 -39 10 0
1 -40 0
1 -36 83 84 0
1 -37 0
1 -38 0
1 -39 0
1 -40 81 0
1 -1 0
1 -2 34 35 0
1 -3 0
1 -4 0
1 -5 33 0
1 -101 0
1 -102 0
1 -103 49 0
1 -104 0
1 -105 47 48 0
1 -26 0
1 -27 19 0
1 -28 19 20 0
1 -29 0
1 -30 0
1 -76 6 10 0
1 -77 10 0
1 -78 0
1 -79 0
1 -80 0
1 -66 51 53 0
1 -67 0
1 -68 0
1 -69 54 0
1 -70 0
1 -26 24 0
1 -27 0
1 -28 0
1 -29 0
1 -30 22 24 0
1 -116 0
1 -117 0
1 -118 37 40 0
1 -119 39 0
1 -120 0
1 -81 93 94 0
1 -82 0
1 -83 0
1 -84 0
1 -85 91 0
1 -86 0
1 -87 41 0
1 -88 42 43 0
1 -89 0
1 -90 0
1 -76 39 0
1 -77 0
1 -78 37 0
1 -79 0
1 -80 38 0
1 -51 0
1 -52 0
1 -53 18 0
1 -54 19 0
1 -55 20 0
1 -31 94 95 0
1 -32 0
1 -33 0
1 -34 0
1 -35 92 0
1 -56 0
1 -57 19 0
1 -58 18 0
1 -59 0
1 -60 16 0
1 -1 137 140 0
1 -2 0
1 -3 0
1 -4 139 0
1 -5 0
1 -31 0
1 -32 0
1 -33 79 80 0
1 -34 77 0
1 -35 0
1 -56 61 64 0
1 -57 0
1 -58 62 0
1 -59 0
1 -60 0
1 -126 47 49 0
1 -127 0
1 -128 0
1 -129 0
1 -130 49 0
1 -71 0
1 -72 39 0
1 -73 38 0
1 -74 0
1 -75 36 0
1 -66 0
1 -67 20 0
1 -68 18 0
1 -69 16 0
1 -70 0
1 -56 52 53 0
1 -57 0
1 -58 0
1 -59 54 0
1 -60 0
1 -111 97 0
1 -112 0
1 -113 96 0
1 -114 100 0
1 -115 0
1 -31 13 0
1 -32 15 0
1 -33 0
1 -34 11 0
1 -35 0
1 -81 86 89 0
1 -82 0
1 -83 90 0
1 -84 0
1 -85 0
1 -21 0
1 -22 0
1 -23 1 5 0
1 -24 2 0
1 -25 0
1 -121 4 0
1 -122 0
1 -123 5 0
1 -124 2 0
1 -125 0
1 -111 0
1 -112 0
1 -113 116 0
1 -114 118 119 0
1 -115 0
1 -126 0
1 -127 96 0
1 -128 97 99 0
1 -129 0
1 -130 0
1 -91 0
1 -92 0
1 -93 61 65 0
1 -94 0
1 -95 64 0
1 -11 0
1 -12 0
1 -13 40 0
1 -14 0
1 -15 36 39 0
1 -36 99 0
1 -37 96 98 0
1 -38 0
1 -39 0
1 -40 0
1 -71 55 0
1 -72 0
1 -73 51 0
1 -74 52 0
1 -75 0
1 -66 7 0
1 -67 0
1 -68 9 0
1 -69 0
1 -70 8 0
1 -36 0
1 -37 32 0
1 -38 0
1 -39 0
1 -40 31 35 0
1 -61 0
1 -62 0
1 -63 10 0
1 -64 0
1 -65 7 10 0
1 -71 11 15 0
1 -72 0
1 -73 0
1 -74 15 0
1 -75 0
1 -136 134 0
1 -137 132 0
1 -138 135 0
1 -139 0
1 -140 0
1 -46 0
1 -47 10 0
1 -48 7 10 0
1 -49 0
1 -50 0
1 -121 0
1 -122 39 0
1 -123 0
1 -124 0
1 -125 38 39 0
1 -81 0
1 -82 56 0
1 -83 0
1 -84 56 60 0
1 -85 0
1 -16 0
1 -17 0
1 -18 0
1 -19 109 0
1 -20 106 108 0
1 -116 5 0
1 -117 0
1 -118 4 0
1 -119 1 0
1 -120 0
1 -106 132 133 0
1 -107 0
1 -108 0
1 -109 0
1 -110 131 0
1 -31 20 0
1 -32 0
1 -33 17 0
1 -34 0
1 -35 18 0
1 -111 0
1 -112 30 0
1 -113 29 0
1 -114 27 0
1 -115 0
1 -41 0
1 -42 0
1 -43 36 38 0
1 -44 40 0
1 -45 0
1 -11 0
1 -12 0
1 -13 44 0
1 -14 0
1 -15 42 45 0
1 -76 0
1 -77 16 18 0
1 -78 0
1 -79 19 0
1 -80 0
1 -1 10 0
1 -2 7 8 0
1 -3 0
1 -4 0
1 -5 0
1 -116 124 0
1 -117 0
1 -118 0
1 -119 121 123 0
1 -120 0
1 -106 0
1 -107 0
1 -108 138 139 0
1 -109 137 0
1 -110 0
1 -121 106 0
1 -122 109 0
1 -123 107 0
1 -124 0
1 -125 0
1 -16 0
1 -17 64 0
1 -18 0
1 -19 62 65 0
1 -20 0
1 -106 39 0
1 -107 0
1 -108 37 0
1 -109 38 0
1 -110 0
1 -131 49 0
1 -132 46 0
1 -133 50 0
1 -134 0
1 -135 0
1 -71 66 0
1 -72 68 0
1 -73 0
1 -74 69 0
1 -75 0
1 -56 0
1 -57 10 0
1 -58 0
1 -59 6 10 0
1 -60 0
1 -121 102 104 0
1 -122 0
1 -123 101 0
1 -124 0
1 -125 0
1 -106 96 0
1 -107 0
1 -108 0
1 -109 0
1 -110 97 100 0
1 -76 72 73 0
1 -77 0
1 -78 0
1 -79 74 0
1 -80 0
1 -91 37 0
1 -92 0
1 -93 0
1 -94 0
1 -95 37 39 0
1 -51 34 0
1 -52 32 0
1 -53 31 0
1 -54 0
1 -55 0
1 -61 0
1 -62 0
1 -63 13 0
1 -64 11 15 0
1 -65 0
1 -16 0
1 -17 3 0
1 -18 3 5 0
1 -19 0
1 -20 0
1 -106 4 0
1 -107 0
1 -108 3 0
1 -109 0
1 -110 1 0
1 -41 0
1 -42 16 20 0
1 -43 0
1 -44 19 0
1 -45 0
1 -76 68 69 0
1 -77 0
1 -78 0
1 -79 0
1 -80 66 0
1 -126 0
1 -127 0
1 -128 0
1 -129 18 0
1 -130 17 18 0
1 -106 0
1 -107 0
1 -108 130 0
1 -109 0
1 -110 126 127 0
